c SAT problem
p wcnf 215 790
1 60 3165 0
1 60 3135 0
1 -75 -76 0
1 -75 -60 0
1 75 -3165 0
1 90 -105 0
1 90 -3090 0
1 90 -91 0
1 90 3165 0
1 -90 3135 0
1 -105 3060 0
1 105 -3165 0
1 3120 -196 0
1 -3120 -135 0
1 -3120 105 0
1 3120 120 0
1 3120 -3135 0
1 -3135 -196 0
1 3135 165 0
1 -3135 -181 0
1 3135 -150 0
1 -3135 120 0
1 3135 60 0
1 -3150 3151 0
1 -3150 121 0
1 3150 3165 0
1 3165 -136 0
1 3165 105 0
1 3165 75 0
1 120 -3120 0
1 135 3105 0
1 -135 -3075 0
1 135 3120 0
1 -135 3135 0
1 150 3015 0
1 -150 -3120 0
1 -150 3060 0
1 150 -151 0
1 150 3000 0
1 -165 -3075 0
1 -165 3060 0
1 -165 150 0
1 -165 3030 0
1 165 3000 0
1 -3060 -165 0
1 3060 -105 0
1 -3060 240 0
1 -3060 -180 0
1 -3060 -255 0
1 3075 210 0
1 3075 -180 0
1 -3075 90 0
1 3090 226 0
1 3090 105 0
1 -3105 -3106 0
1 -3105 135 0
1 -3105 -240 0
1 -3105 -150 0
1 180 -3075 0
1 180 -181 0
1 -195 -196 0
1 -195 -180 0
1 -195 3000 0
1 210 3045 0
1 -210 -3015 0
1 -210 3000 0
1 -225 -226 0
1 -225 -3075 0
1 3015 225 0
1 -3015 -195 0
1 -3015 -3000 0
1 3015 -315 0
1 -3030 -225 0
1 -3030 -195 0
1 -3030 -165 0
1 -3030 3045 0
1 3030 -150 0
1 3030 -3031 0
1 3030 -255 0
1 -3045 195 0
1 -3045 165 0
1 -3045 -3030 0
1 -61 -3330 0
1 -61 -3345 0
1 -61 -3315 0
1 -61 60 0
1 -76 -3345 0
1 91 -3345 0
1 -91 92 0
1 -106 -3270 0
1 -106 105 0
1 -106 -107 0
1 106 3345 0
1 106 -3255 0
1 106 -91 0
1 3300 3301 0
1 3300 136 0
1 -3300 -106 0
1 -3300 -151 0
1 3300 -91 0
1 3315 -3300 0
1 -3315 -136 0
1 3315 -121 0
1 -3330 -3331 0
1 -3330 106 0
1 3330 61 0
1 -3345 197 0
1 3345 -137 0
1 -3345 3346 0
1 -3345 182 0
1 136 3300 0
1 136 -3270 0
1 -136 135 0
1 136 3240 0
1 136 3315 0
1 -136 121 0
1 -151 -3300 0
1 -151 -166 0
1 151 -3240 0
1 151 -3150 0
1 151 -150 0
1 -166 3255 0
1 166 3300 0
1 166 3285 0
1 -166 151 0
1 166 3195 0
1 -3240 -3255 0
1 3240 166 0
1 -3240 -151 0
1 -3240 -91 0
1 -3255 -166 0
1 3255 -136 0
1 -3255 3240 0
1 3255 106 0
1 -3255 -151 0
1 -3270 -256 0
1 -3270 -227 0
1 3270 -212 0
1 -3270 3285 0
1 3270 91 0
1 3285 -3270 0
1 -3285 151 0
1 -181 -3180 0
1 -181 -3150 0
1 -181 3120 0
1 181 3255 0
1 -181 3225 0
1 -196 -3105 0
1 -196 -195 0
1 -196 3240 0
1 196 -3180 0
1 -196 -3150 0
1 -196 3120 0
1 211 -3136 0
1 211 3180 0
1 -211 -3151 0
1 211 210 0
1 211 3195 0
1 -226 3136 0
1 -226 225 0
1 -226 -227 0
1 226 -3240 0
1 -226 -211 0
1 226 -3166 0
1 -3180 196 0
1 -3180 -301 0
1 3180 -151 0
1 3180 -3195 0
1 -3180 -316 0
1 3195 -270 0
1 3195 151 0
1 -3195 316 0
1 3210 256 0
1 3210 301 0
1 3225 -196 0
1 3225 301 0
1 3225 271 0
1 -3225 -241 0
1 -3225 -211 0
1 -3225 3226 0
1 3225 -286 0
1 -240 3090 0
1 -240 255 0
1 255 3105 0
1 -255 -3136 0
1 -255 -3075 0
1 255 3180 0
1 255 240 0
1 255 -3195 0
1 -270 -3136 0
1 285 3076 0
1 -285 -3030 0
1 -285 -3166 0
1 -285 286 0
1 3121 226 0
1 -3121 330 0
1 -3121 -3120 0
1 3121 -3122 0
1 -3121 -285 0
1 3136 3121 0
1 3136 285 0
1 -3151 226 0
1 3151 -301 0
1 -3151 -240 0
1 -3151 -3152 0
1 3151 346 0
1 -3166 -331 0
1 -3166 3151 0
1 -3166 -376 0
1 -3166 -346 0
1 -3166 -255 0
1 300 -3045 0
1 -300 -3121 0
1 -300 -3091 0
1 -300 -3000 0
1 315 -3136 0
1 315 300 0
1 -315 -3061 0
1 330 -3031 0
1 -345 -3091 0
1 345 3031 0
1 -3061 420 0
1 3061 -390 0
1 -3061 -330 0
1 3061 405 0
1 -3061 -3062 0
1 3061 -375 0
1 -3061 345 0
1 -3061 315 0
1 -3076 -420 0
1 3076 -390 0
1 -3076 -345 0
1 3076 315 0
1 -3076 285 0
1 -3091 -3106 0
1 -3091 -285 0
1 3106 3105 0
1 3106 3107 0
1 3106 361 0
1 -3106 300 0
1 -3106 270 0
1 3106 -435 0
1 3106 3091 0
1 -360 -3076 0
1 360 3046 0
1 -360 -361 0
1 -360 -3001 0
1 -375 3076 0
1 375 360 0
1 375 3016 0
1 375 3031 0
1 375 -3001 0
1 -405 -390 0
1 -405 -3046 0
1 405 3016 0
1 405 -3061 0
1 -3001 -480 0
1 -3001 390 0
1 3001 330 0
1 -3001 -405 0
1 -3001 -3000 0
1 3016 3015 0
1 3031 -480 0
1 -3031 390 0
1 -3031 -360 0
1 3031 -435 0
1 3031 -405 0
1 -3031 3030 0
1 -3031 -375 0
1 3031 345 0
1 3046 -450 0
1 -3046 3047 0
1 3046 360 0
1 -3046 330 0
1 3046 495 0
1 -3046 -3031 0
1 -3046 345 0
1 62 -3525 0
1 -77 -3495 0
1 -77 3510 0
1 77 3480 0
1 -92 3525 0
1 92 -107 0
1 -92 3480 0
1 -107 3510 0
1 -107 -92 0
1 3480 -77 0
1 3480 152 0
1 3480 -92 0
1 3480 62 0
1 -3495 -122 0
1 3510 -3525 0
1 -3510 62 0
1 -3525 -77 0
1 -122 3495 0
1 -122 137 0
1 122 -3435 0
1 -122 121 0
1 122 3450 0
1 -137 3495 0
1 -137 136 0
1 -137 -3345 0
1 137 3480 0
1 -137 122 0
1 -152 -167 0
1 -152 3465 0
1 -152 3375 0
1 152 3480 0
1 -152 3450 0
1 167 -3495 0
1 -167 -3405 0
1 167 -3345 0
1 167 -152 0
1 167 -3420 0
1 167 -3390 0
1 3420 -257 0
1 -3420 -122 0
1 3420 -3421 0
1 3435 3436 0
1 -3435 -182 0
1 3435 152 0
1 -3435 -122 0
1 -3450 -257 0
1 -3450 152 0
1 -3450 -122 0
1 -3465 3466 0
1 -3465 107 0
1 -3465 242 0
1 3465 122 0
1 182 3405 0
1 182 181 0
1 -182 -3390 0
1 -197 -3330 0
1 -197 -196 0
1 -197 -3435 0
1 -197 3405 0
1 197 -3345 0
1 -212 3346 0
1 212 3316 0
1 -212 3390 0
1 -227 -3301 0
1 227 3316 0
1 -3360 -256 0
1 3360 -3361 0
1 3360 -302 0
1 3360 -212 0
1 3360 182 0
1 -3360 -286 0
1 3375 -3360 0
1 -3375 197 0
1 3375 -212 0
1 -3375 152 0
1 -3375 317 0
1 3390 257 0
1 -3390 -227 0
1 -3390 3391 0
1 3390 -302 0
1 3390 -242 0
1 -3390 182 0
1 -3390 -152 0
1 -3405 227 0
1 3405 -3406 0
1 3405 -272 0
1 3405 317 0
1 -241 3331 0
1 241 -3270 0
1 -241 -3375 0
1 -256 -241 0
1 256 3316 0
1 256 -255 0
1 -271 3210 0
1 -271 -3256 0
1 286 -3301 0
1 286 3241 0
1 286 3225 0
1 286 287 0
1 -3301 227 0
1 -3301 -3300 0
1 3301 331 0
1 3301 286 0
1 3316 -362 0
1 3316 331 0
1 3316 -241 0
1 3316 -3315 0
1 -3316 3317 0
1 -3331 -332 0
1 -3331 3346 0
1 -3331 -212 0
1 -3331 -347 0
1 -3331 -317 0
1 -3346 -227 0
1 -3346 -362 0
1 -3346 317 0
1 -3346 286 0
1 301 3271 0
1 -301 3241 0
1 301 3210 0
1 301 -302 0
1 301 3316 0
1 -301 316 0
1 -301 3166 0
1 -316 -3301 0
1 316 -3241 0
1 316 -301 0
1 316 -3166 0
1 331 3226 0
1 -331 330 0
1 331 3316 0
1 -331 -3286 0
1 -331 3166 0
1 346 3301 0
1 346 -3271 0
1 -346 -3241 0
1 346 3286 0
1 -346 3256 0
1 -346 345 0
1 -346 3226 0
1 -346 -3166 0
1 -3241 3242 0
1 3241 376 0
1 3241 316 0
1 -3241 -286 0
1 -3256 421 0
1 3256 376 0
1 -3271 -362 0
1 -3271 436 0
1 3271 -377 0
1 3271 -316 0
1 -3271 286 0
1 3286 -3271 0
1 3286 -377 0
1 3286 -286 0
1 361 -3256 0
1 361 3241 0
1 -361 -3196 0
1 -361 3166 0
1 -376 -3106 0
1 376 -3241 0
1 -376 3091 0
1 376 -375 0
1 -376 -377 0
1 376 3226 0
1 391 -3106 0
1 391 390 0
1 391 3241 0
1 391 -3211 0
1 391 -3152 0
1 -391 3122 0
1 -391 -406 0
1 -391 -3196 0
1 406 3106 0
1 406 -3181 0
1 406 -3226 0
1 3181 -481 0
1 3181 -3180 0
1 3181 -496 0
1 3181 -435 0
1 3181 376 0
1 -3196 420 0
1 3196 -331 0
1 3196 -496 0
1 3196 -346 0
1 3211 -451 0
1 3211 -391 0
1 -3211 496 0
1 -3211 -466 0
1 3211 -406 0
1 3226 -421 0
1 -3226 496 0
1 -3226 -3225 0
1 -3226 -346 0
1 -420 3106 0
1 -420 -3076 0
1 420 3181 0
1 420 -3152 0
1 420 -3196 0
1 -435 -420 0
1 -435 -3046 0
1 435 -3061 0
1 450 3152 0
1 -450 -3196 0
1 -465 -3152 0
1 -465 3062 0
1 -465 -3196 0
1 3122 450 0
1 -3122 -391 0
1 3122 -465 0
1 3122 -435 0
1 3122 -541 0
1 -3137 450 0
1 -3137 -420 0
1 -3137 -525 0
1 -3137 541 0
1 -3137 -510 0
1 3152 -450 0
1 -3152 -391 0
1 -3152 556 0
1 3152 -511 0
1 -3167 -481 0
1 -3167 -526 0
1 -3167 465 0
1 -3167 3152 0
1 3167 541 0
1 3167 3166 0
1 -480 481 0
1 -480 -3107 0
1 -480 -3016 0
1 480 495 0
1 480 3122 0
1 -480 3092 0
1 -495 480 0
1 495 3062 0
1 495 -3031 0
1 -510 3107 0
1 -510 3077 0
1 -510 -3047 0
1 -510 3122 0
1 510 -3092 0
1 -510 511 0
1 -525 -3077 0
1 -525 -3122 0
1 525 3092 0
1 -525 510 0
1 3062 450 0
1 -3062 -585 0
1 -3062 -555 0
1 -3062 -525 0
1 3062 -495 0
1 3062 465 0
1 -3077 -480 0
1 3077 -585 0
1 3077 525 0
1 -3077 3062 0
1 3092 450 0
1 -3092 495 0
1 -3092 -465 0
1 3107 480 0
1 -3107 3106 0
1 -3107 -541 0
1 3107 510 0
1 -540 555 0
1 -540 -3002 0
1 570 -3062 0
1 -585 3047 0
1 -585 -3032 0
1 -585 570 0
1 3017 -3002 0
1 3017 -3016 0
1 -3017 585 0
1 -3017 -540 0
1 -3047 -585 0
1 -3047 -525 0
1 242 3496 0
1 242 3481 0
1 242 3420 0
1 -242 3390 0
1 -257 256 0
1 -272 -3466 0
1 272 271 0
1 -272 -287 0
1 -287 3526 0
1 3481 -257 0
1 3481 302 0
1 3481 3482 0
1 3481 -242 0
1 -3481 -3480 0
1 -3481 347 0
1 -3481 317 0
1 -3496 3497 0
1 -3496 272 0
1 3496 242 0
1 3496 -347 0
1 -3496 317 0
1 -3511 -272 0
1 3511 3510 0
1 3526 -3525 0
1 3526 272 0
1 -3526 -3511 0
1 -3526 287 0
1 302 3466 0
1 302 3405 0
1 -302 -3390 0
1 -317 3331 0
1 317 3405 0
1 317 3481 0
1 -332 3361 0
1 332 3331 0
1 -332 -3466 0
1 -332 331 0
1 332 -3436 0
1 332 3406 0
1 -347 -3496 0
1 347 -3466 0
1 347 -332 0
1 -347 3436 0
1 -347 -346 0
1 347 3391 0
1 3421 -362 0
1 -3421 302 0
1 -3421 -377 0
1 3421 -317 0
1 3421 287 0
1 -3436 302 0
1 3436 377 0
1 3436 317 0
1 3436 287 0
1 3451 3466 0
1 3451 -272 0
1 3466 422 0
1 3466 -3467 0
1 -3466 302 0
1 -3466 -437 0
1 362 -3331 0
1 362 -3301 0
1 362 -3271 0
1 362 3376 0
1 362 3391 0
1 377 -3361 0
1 -377 3331 0
1 377 -3301 0
1 377 -3271 0
1 377 -362 0
1 377 -3346 0
1 377 3316 0
1 -392 3361 0
1 392 -3436 0
1 392 3286 0
1 392 -3391 0
1 407 3361 0
1 -407 3332 0
1 407 -392 0
1 407 3436 0
1 -407 3376 0
1 407 -3421 0
1 -407 3391 0
1 3361 -451 0
1 -3361 332 0
1 3361 497 0
1 3376 466 0
1 3376 -3377 0
1 -3376 377 0
1 3391 -452 0
1 -3391 -422 0
1 3391 -362 0
1 -3391 -3406 0
1 -3391 -497 0
1 3406 422 0
1 -3406 392 0
1 3406 3405 0
1 -3406 467 0
1 -3406 -377 0
1 421 -3361 0
1 -421 -3376 0
1 -436 3211 0
1 451 450 0
1 -451 3272 0
1 451 -3376 0
1 -451 3347 0
1 -451 -3317 0
1 466 -3211 0
1 466 465 0
1 3302 481 0
1 3302 -392 0
1 3302 -407 0
1 3302 511 0
1 3317 392 0
1 3317 557 0
1 -3317 -407 0
1 -3317 511 0
1 3332 -451 0
1 3332 -3331 0
1 -3332 -421 0
1 -3332 557 0
1 -3332 527 0
1 -3332 466 0
1 -3347 421 0
1 -3347 392 0
1 3347 -3346 0
1 -481 3302 0
1 481 496 0
1 481 3257 0
1 481 3167 0
1 -496 495 0
1 -496 -3152 0
1 496 3317 0
1 496 -3287 0
1 511 3152 0
1 -511 -3257 0
1 -511 -3197 0
1 -511 -3167 0
1 -526 -3152 0
1 -526 -3287 0
1 3242 481 0
1 3242 -586 0
1 -3242 556 0
1 -3242 -496 0
1 -3257 556 0
1 -3257 -496 0
1 -3257 466 0
1 3272 451 0
1 3272 587 0
1 3272 -511 0
1 -3287 -451 0
1 -3287 -496 0
1 -3287 -511 0
1 541 -3137 0
1 -541 3242 0
1 -541 3152 0
1 -541 3227 0
1 -541 3197 0
1 556 -3152 0
1 -556 -3122 0
1 -556 3197 0
1 -556 -3167 0
1 571 -586 0
1 571 3257 0
1 -586 -3212 0
1 586 3092 0
1 586 -3197 0
1 -3182 -3181 0
1 3182 526 0
1 -3182 -3197 0
1 -3182 541 0
1 3197 -3196 0
1 3197 511 0
1 3212 -526 0
1 3212 3227 0
1 -3212 -511 0
1 3227 -556 0
1 3227 541 0
1 422 -3527 0
1 -422 3466 0
1 -422 3406 0
1 -437 3466 0
1 -437 -3406 0
1 437 436 0
1 -452 3497 0
1 452 -3452 0
1 452 3422 0
1 -452 3391 0
1 467 3467 0
1 -467 -3452 0
1 -467 3391 0
1 3482 -452 0
1 3482 422 0
1 -3482 3497 0
1 -3497 -527 0
1 3512 -452 0
1 3512 3511 0
1 482 3361 0
1 -482 -3467 0
1 -482 3406 0
1 482 -497 0
1 -497 -482 0
1 -497 3406 0
1 497 -3422 0
1 -512 3392 0
1 -512 3362 0
1 512 -3467 0
1 512 -3437 0
1 512 -527 0
1 -512 3347 0
1 527 -3332 0
1 -527 3377 0
1 -527 3422 0
1 -3422 -587 0
1 3422 -467 0
1 3437 452 0
1 -3437 557 0
1 -3437 -467 0
1 3467 -452 0
1 557 3392 0
1 557 3362 0
1 557 -556 0
1 -557 3437 0
1 557 -3407 0
1 -557 -3377 0
1 -557 3347 0
1 -572 3287 0
1 -587 -3392 0
1 587 -586 0
1 587 3377 0
1 -587 -3287 0
1 -587 -572 0
1 -587 3422 0
1 3377 -3376 0
1 3407 -512 0
1 3407 -3392 0
1 -3407 -3406 0
1 3407 527 0
